
Gurobi 10.0.2 (linux64, Python) logging started Sun Apr  7 17:30:08 2024

Set parameter Username
Set parameter LogFile to value "gurobi.log"
Academic license - for non-commercial use only - expires 2024-08-14
